param inputone: 1 2 3 :=
1 0.1 0.1 0.2
2 0.5 0.1 0.1
3 0.5 0.2 0.2
;

param manpowerone :=
1 0.6
2 0.3
3 0.2
;

param inputtwo: 1 2 3 :=
1 0.0 0.1 0.2
2 0.7 0.1 0.1
3 0.9 0.2 0.2
;

param manpowertwo :=
1 0.4
2 0.2
3 0.1
;

param stock :=
1 150
2 80
3 100
;

param capacity :=
1 300
2 350
3 280
;

param demand :=
1 60000000
2 60000000
3 30000000
;
